\Generated using SimplexCpp @ 28-02-2020 18:43:05
\Unbounded problem

Minimize
 obj: -1 x1 -1 x2 
Subject To
 c1: +1 x1 -1.5 x3 +0.5 x4 <= 0.5
 c2: +1 x2 +0.5 x3 -0.5 x4 <= 0.5
Bounds
 x1 >= 0 x2 >= 0 x3 >= 0 x4 >= 0

End